(set-logic QF_S)
(declare-fun V46 () String )
(declare-fun V43 () String )
(declare-fun V25 () String )
(declare-fun V15 () String )
(declare-fun V14 () String )
(declare-fun V27 () String )
(declare-fun V66 () String )
(declare-fun V9 () String )
(declare-fun V7 () String )
(declare-fun V35 () String )
(declare-fun V44 () String )
(declare-fun V49 () String )
(declare-fun V30 () String )
(declare-fun V5 () String )
(declare-fun V38 () String )
(declare-fun V16 () String )
(declare-fun V33 () String )
(declare-fun V64 () String )
(declare-fun V60 () String )
(declare-fun V48 () String )
(declare-fun V53 () String )
(declare-fun V57 () String )
(declare-fun V37 () String )
(declare-fun V24 () String )
(declare-fun V65 () String )
(declare-fun V54 () String )
(declare-fun V42 () String )
(declare-fun V41 () String )
(declare-fun V61 () String )
(declare-fun V8 () String )
(declare-fun V20 () String )
(declare-fun V62 () String )
(declare-fun V45 () String )
(declare-fun V58 () String )
(declare-fun V52 () String )
(declare-fun V40 () String )
(declare-fun V10 () String )
(declare-fun V23 () String )
(declare-fun V18 () String )
(declare-fun V2 () String )
(declare-fun V21 () String )
(declare-fun V31 () String )
(declare-fun V63 () String )
(declare-fun V29 () String )
(declare-fun V34 () String )
(declare-fun V0 () String )
(declare-fun V59 () String )
(declare-fun V19 () String )
(declare-fun V36 () String )
(declare-fun V28 () String )
(declare-fun V17 () String )
(declare-fun V56 () String )
(declare-fun V22 () String )
(declare-fun V4 () String )
(declare-fun V3 () String )
(declare-fun V11 () String )
(declare-fun V51 () String )
(declare-fun V55 () String )
(declare-fun V1 () String )
(declare-fun V39 () String )
(declare-fun V6 () String )
(declare-fun V26 () String )
(declare-fun V12 () String )
(declare-fun V50 () String )
(declare-fun V47 () String )
(declare-fun V32 () String )
(declare-fun V13 () String )
(assert (= "" V17 ) )
(assert (= "," V24 ) )
(assert (= "/" V0 ) )
(assert (= ":" V29 ) )
(assert (= "U" V5 ) )
(assert (= "Z" V21 ) )
(assert (= V2 (str.++ (str.++ V57 "U" ) V58 ) ) )
(assert (= V2 (str.++ (str.++ V65 "Z" ) V66 ) ) )
(assert (= V2 (str.++ (str.++ V32 V12 ) V33 ) ) )
(assert (= V2 (str.++ (str.++ V48 V49 ) V33 ) ) )
(assert (= V2 (str.++ (str.++ V6 V7 ) V8 ) ) )
(assert (= V2 (str.++ (str.++ V6 V22 ) V23 ) ) )
(assert (= V17 V7 ) )
(assert (= V54 (str.++ (str.++ V52 "z" ) V53 ) ) )
(assert (= V12 (str.++ (str.++ V55 "U" ) V56 ) ) )
(assert (= V12 (str.++ (str.++ V34 V16 ) V35 ) ) )
(assert (= V12 (str.++ (str.++ V9 V10 ) V11 ) ) )
(assert (= V22 (str.++ (str.++ V52 "Z" ) V53 ) ) )
(assert (= V18 (str.++ (str.++ V63 "u" ) V64 ) ) )
(assert (= V16 (str.++ (str.++ V59 "U" ) V60 ) ) )
(assert (= V16 (str.++ (str.++ V46 V20 ) V47 ) ) )
(assert (= V16 (str.++ (str.++ V13 V14 ) V15 ) ) )
(assert (= V10 (str.++ (str.++ V63 "U" ) V64 ) ) )
(assert (= V15 V47 ) )
(assert (= V19 (str.++ (str.++ V61 "u" ) V62 ) ) )
(assert (= V14 (str.++ (str.++ V61 "U" ) V62 ) ) )
(assert (= V37 (str.++ (str.++ V38 V39 ) V40 ) ) )
(assert (= V26 (str.++ (str.++ V41 V42 ) V43 ) ) )
(assert (= V4 (str.++ (str.++ V50 "/" ) V51 ) ) )
(assert (= V4 (str.++ (str.++ V1 V2 ) V3 ) ) )
(assert (= V28 (str.++ (str.++ V44 "," ) V45 ) ) )
(assert (= V28 (str.++ (str.++ V36 V37 ) V31 ) ) )
(assert (= V28 (str.++ (str.++ V25 V26 ) V27 ) ) )
(assert (= V28 (str.++ (str.++ V30 V4 ) V31 ) ) )
(assert (= (str.++ (str.++ (str.++ V17 V18 ) V19 ) V20 ) "localhost" ) )
( check-sat )
